 Minimize
[ 1.0000000000000000 Z0 * Z181  ]
Subject to
c1: [ -0.1000000000000000 Z0 * Z145 -0.2000000000000000 Z0 * Z146 -0.3000000000000000 Z0 * Z147 -0.4000000000000000 Z0 * Z148 -0.5000000000000000 Z0 * Z149 -1.0000000000000000 Z0 * Z151 -1.0000000000000000 Z0 * Z152 -1.0000000000000000 Z0 * Z153 -1.0000000000000000 Z0 * Z154 -1.0000000000000000 Z0 * Z155 -1.0000000000000000 Z0 * Z156  + 1.0000000000000000 Z0 * Z181  ] = 0.000000
c2: [ 1.0000000000000000 Z1 * Z151  + 1.0000000000000000 Z2 * Z152  + 1.0000000000000000 Z3 * Z153  + 1.0000000000000000 Z4 * Z154  + 1.0000000000000000 Z5 * Z155  + 1.0000000000000000 Z6 * Z156  ] >= 8.000000
c3: [ 1.0000000000000000 Z7 * Z151  + 1.0000000000000000 Z8 * Z152  + 1.0000000000000000 Z9 * Z153  + 1.0000000000000000 Z10 * Z154  + 1.0000000000000000 Z11 * Z155  + 1.0000000000000000 Z12 * Z156  ] >= 16.000000
c4: [ 1.0000000000000000 Z13 * Z151  + 1.0000000000000000 Z14 * Z152  + 1.0000000000000000 Z15 * Z153  + 1.0000000000000000 Z16 * Z154  + 1.0000000000000000 Z17 * Z155  + 1.0000000000000000 Z18 * Z156  ] >= 12.000000
c5: [ 1.0000000000000000 Z19 * Z151  + 1.0000000000000000 Z20 * Z152  + 1.0000000000000000 Z21 * Z153  + 1.0000000000000000 Z22 * Z154  + 1.0000000000000000 Z23 * Z155  + 1.0000000000000000 Z24 * Z156  ] >= 7.000000
c6: [ 1.0000000000000000 Z25 * Z151  + 1.0000000000000000 Z26 * Z152  + 1.0000000000000000 Z27 * Z153  + 1.0000000000000000 Z28 * Z154  + 1.0000000000000000 Z29 * Z155  + 1.0000000000000000 Z30 * Z156  ] >= 14.000000
c7: [ 1.0000000000000000 Z31 * Z151  + 1.0000000000000000 Z32 * Z152  + 1.0000000000000000 Z33 * Z153  + 1.0000000000000000 Z34 * Z154  + 1.0000000000000000 Z35 * Z155  + 1.0000000000000000 Z36 * Z156  ] >= 16.000000
c8: [ -330.0000000000000000 Z0 * Z1 -360.0000000000000000 Z0 * Z7 -380.0000000000000000 Z0 * Z13 -430.0000000000000000 Z0 * Z19 -490.0000000000000000 Z0 * Z25 -530.0000000000000000 Z0 * Z31  + 2100.0000000000000000 Z0 * Z145  ] <= 0.000000
c9: [ -330.0000000000000000 Z0 * Z2 -360.0000000000000000 Z0 * Z8 -380.0000000000000000 Z0 * Z14 -430.0000000000000000 Z0 * Z20 -490.0000000000000000 Z0 * Z26 -530.0000000000000000 Z0 * Z32  + 2100.0000000000000000 Z0 * Z146  ] <= 0.000000
c10: [ -330.0000000000000000 Z0 * Z3 -360.0000000000000000 Z0 * Z9 -380.0000000000000000 Z0 * Z15 -430.0000000000000000 Z0 * Z21 -490.0000000000000000 Z0 * Z27 -530.0000000000000000 Z0 * Z33  + 2100.0000000000000000 Z0 * Z147  ] <= 0.000000
c11: [ -330.0000000000000000 Z0 * Z4 -360.0000000000000000 Z0 * Z10 -380.0000000000000000 Z0 * Z16 -430.0000000000000000 Z0 * Z22 -490.0000000000000000 Z0 * Z28 -530.0000000000000000 Z0 * Z34  + 2100.0000000000000000 Z0 * Z148  ] <= 0.000000
c12: [ -330.0000000000000000 Z0 * Z5 -360.0000000000000000 Z0 * Z11 -380.0000000000000000 Z0 * Z17 -430.0000000000000000 Z0 * Z23 -490.0000000000000000 Z0 * Z29 -530.0000000000000000 Z0 * Z35  + 2100.0000000000000000 Z0 * Z149  ] <= 0.000000
c13: [ -330.0000000000000000 Z0 * Z6 -360.0000000000000000 Z0 * Z12 -380.0000000000000000 Z0 * Z18 -430.0000000000000000 Z0 * Z24 -490.0000000000000000 Z0 * Z30 -530.0000000000000000 Z0 * Z36  + 2100.0000000000000000 Z0 * Z150  ] <= 0.000000
c14: [ 330.0000000000000000 Z0 * Z1  + 360.0000000000000000 Z0 * Z7  + 380.0000000000000000 Z0 * Z13  + 430.0000000000000000 Z0 * Z19  + 490.0000000000000000 Z0 * Z25  + 530.0000000000000000 Z0 * Z31 -2200.0000000000000000 Z0 * Z145  ] <= 0.000000
c15: [ 330.0000000000000000 Z0 * Z2  + 360.0000000000000000 Z0 * Z8  + 380.0000000000000000 Z0 * Z14  + 430.0000000000000000 Z0 * Z20  + 490.0000000000000000 Z0 * Z26  + 530.0000000000000000 Z0 * Z32 -2200.0000000000000000 Z0 * Z146  ] <= 0.000000
c16: [ 330.0000000000000000 Z0 * Z3  + 360.0000000000000000 Z0 * Z9  + 380.0000000000000000 Z0 * Z15  + 430.0000000000000000 Z0 * Z21  + 490.0000000000000000 Z0 * Z27  + 530.0000000000000000 Z0 * Z33 -2200.0000000000000000 Z0 * Z147  ] <= 0.000000
c17: [ 330.0000000000000000 Z0 * Z4  + 360.0000000000000000 Z0 * Z10  + 380.0000000000000000 Z0 * Z16  + 430.0000000000000000 Z0 * Z22  + 490.0000000000000000 Z0 * Z28  + 530.0000000000000000 Z0 * Z34 -2200.0000000000000000 Z0 * Z148  ] <= 0.000000
c18: [ 330.0000000000000000 Z0 * Z5  + 360.0000000000000000 Z0 * Z11  + 380.0000000000000000 Z0 * Z17  + 430.0000000000000000 Z0 * Z23  + 490.0000000000000000 Z0 * Z29  + 530.0000000000000000 Z0 * Z35 -2200.0000000000000000 Z0 * Z149  ] <= 0.000000
c19: [ 330.0000000000000000 Z0 * Z6  + 360.0000000000000000 Z0 * Z12  + 380.0000000000000000 Z0 * Z18  + 430.0000000000000000 Z0 * Z24  + 490.0000000000000000 Z0 * Z30  + 530.0000000000000000 Z0 * Z36 -2200.0000000000000000 Z0 * Z150  ] <= 0.000000
c20: [ -1.0000000000000000 Z0 * Z1 -1.0000000000000000 Z0 * Z7 -1.0000000000000000 Z0 * Z13 -1.0000000000000000 Z0 * Z19 -1.0000000000000000 Z0 * Z25 -1.0000000000000000 Z0 * Z31  + 1.0000000000000000 Z0 * Z145  ] <= 0.000000
c21: [ -1.0000000000000000 Z0 * Z2 -1.0000000000000000 Z0 * Z8 -1.0000000000000000 Z0 * Z14 -1.0000000000000000 Z0 * Z20 -1.0000000000000000 Z0 * Z26 -1.0000000000000000 Z0 * Z32  + 1.0000000000000000 Z0 * Z146  ] <= 0.000000
c22: [ -1.0000000000000000 Z0 * Z3 -1.0000000000000000 Z0 * Z9 -1.0000000000000000 Z0 * Z15 -1.0000000000000000 Z0 * Z21 -1.0000000000000000 Z0 * Z27 -1.0000000000000000 Z0 * Z33  + 1.0000000000000000 Z0 * Z147  ] <= 0.000000
c23: [ -1.0000000000000000 Z0 * Z4 -1.0000000000000000 Z0 * Z10 -1.0000000000000000 Z0 * Z16 -1.0000000000000000 Z0 * Z22 -1.0000000000000000 Z0 * Z28 -1.0000000000000000 Z0 * Z34  + 1.0000000000000000 Z0 * Z148  ] <= 0.000000
c24: [ -1.0000000000000000 Z0 * Z5 -1.0000000000000000 Z0 * Z11 -1.0000000000000000 Z0 * Z17 -1.0000000000000000 Z0 * Z23 -1.0000000000000000 Z0 * Z29 -1.0000000000000000 Z0 * Z35  + 1.0000000000000000 Z0 * Z149  ] <= 0.000000
c25: [ -1.0000000000000000 Z0 * Z6 -1.0000000000000000 Z0 * Z12 -1.0000000000000000 Z0 * Z18 -1.0000000000000000 Z0 * Z24 -1.0000000000000000 Z0 * Z30 -1.0000000000000000 Z0 * Z36  + 1.0000000000000000 Z0 * Z150  ] <= 0.000000
c26: [ 1.0000000000000000 Z0 * Z1  + 1.0000000000000000 Z0 * Z7  + 1.0000000000000000 Z0 * Z13  + 1.0000000000000000 Z0 * Z19  + 1.0000000000000000 Z0 * Z25  + 1.0000000000000000 Z0 * Z31 -5.0000000000000000 Z0 * Z145  ] <= 0.000000
c27: [ 1.0000000000000000 Z0 * Z2  + 1.0000000000000000 Z0 * Z8  + 1.0000000000000000 Z0 * Z14  + 1.0000000000000000 Z0 * Z20  + 1.0000000000000000 Z0 * Z26  + 1.0000000000000000 Z0 * Z32 -5.0000000000000000 Z0 * Z146  ] <= 0.000000
c28: [ 1.0000000000000000 Z0 * Z3  + 1.0000000000000000 Z0 * Z9  + 1.0000000000000000 Z0 * Z15  + 1.0000000000000000 Z0 * Z21  + 1.0000000000000000 Z0 * Z27  + 1.0000000000000000 Z0 * Z33 -5.0000000000000000 Z0 * Z147  ] <= 0.000000
c29: [ 1.0000000000000000 Z0 * Z4  + 1.0000000000000000 Z0 * Z10  + 1.0000000000000000 Z0 * Z16  + 1.0000000000000000 Z0 * Z22  + 1.0000000000000000 Z0 * Z28  + 1.0000000000000000 Z0 * Z34 -5.0000000000000000 Z0 * Z148  ] <= 0.000000
c30: [ 1.0000000000000000 Z0 * Z5  + 1.0000000000000000 Z0 * Z11  + 1.0000000000000000 Z0 * Z17  + 1.0000000000000000 Z0 * Z23  + 1.0000000000000000 Z0 * Z29  + 1.0000000000000000 Z0 * Z35 -5.0000000000000000 Z0 * Z149  ] <= 0.000000
c31: [ 1.0000000000000000 Z0 * Z6  + 1.0000000000000000 Z0 * Z12  + 1.0000000000000000 Z0 * Z18  + 1.0000000000000000 Z0 * Z24  + 1.0000000000000000 Z0 * Z30  + 1.0000000000000000 Z0 * Z36 -5.0000000000000000 Z0 * Z150  ] <= 0.000000
c32: [ 1.0000000000000000 Z0 * Z145 -1.0000000000000000 Z0 * Z151  ] <= 0.000000
c33: [ 1.0000000000000000 Z0 * Z146 -1.0000000000000000 Z0 * Z152  ] <= 0.000000
c34: [ 1.0000000000000000 Z0 * Z147 -1.0000000000000000 Z0 * Z153  ] <= 0.000000
c35: [ 1.0000000000000000 Z0 * Z148 -1.0000000000000000 Z0 * Z154  ] <= 0.000000
c36: [ 1.0000000000000000 Z0 * Z149 -1.0000000000000000 Z0 * Z155  ] <= 0.000000
c37: [ 1.0000000000000000 Z0 * Z150 -1.0000000000000000 Z0 * Z156  ] <= 0.000000
c38: [ -15.0000000000000000 Z0 * Z145  + 1.0000000000000000 Z0 * Z151  ] <= 0.000000
c39: [ -12.0000000000000000 Z0 * Z146  + 1.0000000000000000 Z0 * Z152  ] <= 0.000000
c40: [ -8.0000000000000000 Z0 * Z147  + 1.0000000000000000 Z0 * Z153  ] <= 0.000000
c41: [ -7.0000000000000000 Z0 * Z148  + 1.0000000000000000 Z0 * Z154  ] <= 0.000000
c42: [ -4.0000000000000000 Z0 * Z149  + 1.0000000000000000 Z0 * Z155  ] <= 0.000000
c43: [ -2.0000000000000000 Z0 * Z150  + 1.0000000000000000 Z0 * Z156  ] <= 0.000000
c44: [ 1.0000000000000000 Z0 * Z151  + 1.0000000000000000 Z0 * Z152  + 1.0000000000000000 Z0 * Z153  + 1.0000000000000000 Z0 * Z154  + 1.0000000000000000 Z0 * Z155  + 1.0000000000000000 Z0 * Z156  ] >= 16.000000
c45: [ -1.0000000000000000 Z0 * Z145  + 1.0000000000000000 Z0 * Z146  ] <= 0.000000
c46: [ -1.0000000000000000 Z0 * Z146  + 1.0000000000000000 Z0 * Z147  ] <= 0.000000
c47: [ -1.0000000000000000 Z0 * Z147  + 1.0000000000000000 Z0 * Z148  ] <= 0.000000
c48: [ -1.0000000000000000 Z0 * Z148  + 1.0000000000000000 Z0 * Z149  ] <= 0.000000
c49: [ -1.0000000000000000 Z0 * Z149  + 1.0000000000000000 Z0 * Z150  ] <= 0.000000
c50: [ -1.0000000000000000 Z0 * Z151  + 1.0000000000000000 Z0 * Z152  ] <= 0.000000
c51: [ -1.0000000000000000 Z0 * Z152  + 1.0000000000000000 Z0 * Z153  ] <= 0.000000
c52: [ -1.0000000000000000 Z0 * Z153  + 1.0000000000000000 Z0 * Z154  ] <= 0.000000
c53: [ -1.0000000000000000 Z0 * Z154  + 1.0000000000000000 Z0 * Z155  ] <= 0.000000
c54: [ -1.0000000000000000 Z0 * Z155  + 1.0000000000000000 Z0 * Z156  ] <= 0.000000
c55: [ 1.0000000000000000 Z0 * Z1 -1.0000000000000000 Z0 * Z37 -2.0000000000000000 Z0 * Z38 -4.0000000000000000 Z0 * Z39  ] = 0.000000
c56: [ 1.0000000000000000 Z0 * Z2 -1.0000000000000000 Z0 * Z40 -2.0000000000000000 Z0 * Z41 -4.0000000000000000 Z0 * Z42  ] = 0.000000
c57: [ 1.0000000000000000 Z0 * Z3 -1.0000000000000000 Z0 * Z43 -2.0000000000000000 Z0 * Z44 -4.0000000000000000 Z0 * Z45  ] = 0.000000
c58: [ 1.0000000000000000 Z0 * Z4 -1.0000000000000000 Z0 * Z46 -2.0000000000000000 Z0 * Z47 -4.0000000000000000 Z0 * Z48  ] = 0.000000
c59: [ 1.0000000000000000 Z0 * Z5 -1.0000000000000000 Z0 * Z49 -2.0000000000000000 Z0 * Z50 -4.0000000000000000 Z0 * Z51  ] = 0.000000
c60: [ 1.0000000000000000 Z0 * Z6 -1.0000000000000000 Z0 * Z52 -2.0000000000000000 Z0 * Z53 -4.0000000000000000 Z0 * Z54  ] = 0.000000
c61: [ 1.0000000000000000 Z0 * Z7 -1.0000000000000000 Z0 * Z55 -2.0000000000000000 Z0 * Z56 -4.0000000000000000 Z0 * Z57  ] = 0.000000
c62: [ 1.0000000000000000 Z0 * Z8 -1.0000000000000000 Z0 * Z58 -2.0000000000000000 Z0 * Z59 -4.0000000000000000 Z0 * Z60  ] = 0.000000
c63: [ 1.0000000000000000 Z0 * Z9 -1.0000000000000000 Z0 * Z61 -2.0000000000000000 Z0 * Z62 -4.0000000000000000 Z0 * Z63  ] = 0.000000
c64: [ 1.0000000000000000 Z0 * Z10 -1.0000000000000000 Z0 * Z64 -2.0000000000000000 Z0 * Z65 -4.0000000000000000 Z0 * Z66  ] = 0.000000
c65: [ 1.0000000000000000 Z0 * Z11 -1.0000000000000000 Z0 * Z67 -2.0000000000000000 Z0 * Z68 -4.0000000000000000 Z0 * Z69  ] = 0.000000
c66: [ 1.0000000000000000 Z0 * Z12 -1.0000000000000000 Z0 * Z70 -2.0000000000000000 Z0 * Z71 -4.0000000000000000 Z0 * Z72  ] = 0.000000
c67: [ 1.0000000000000000 Z0 * Z13 -1.0000000000000000 Z0 * Z73 -2.0000000000000000 Z0 * Z74 -4.0000000000000000 Z0 * Z75  ] = 0.000000
c68: [ 1.0000000000000000 Z0 * Z14 -1.0000000000000000 Z0 * Z76 -2.0000000000000000 Z0 * Z77 -4.0000000000000000 Z0 * Z78  ] = 0.000000
c69: [ 1.0000000000000000 Z0 * Z15 -1.0000000000000000 Z0 * Z79 -2.0000000000000000 Z0 * Z80 -4.0000000000000000 Z0 * Z81  ] = 0.000000
c70: [ 1.0000000000000000 Z0 * Z16 -1.0000000000000000 Z0 * Z82 -2.0000000000000000 Z0 * Z83 -4.0000000000000000 Z0 * Z84  ] = 0.000000
c71: [ 1.0000000000000000 Z0 * Z17 -1.0000000000000000 Z0 * Z85 -2.0000000000000000 Z0 * Z86 -4.0000000000000000 Z0 * Z87  ] = 0.000000
c72: [ 1.0000000000000000 Z0 * Z18 -1.0000000000000000 Z0 * Z88 -2.0000000000000000 Z0 * Z89 -4.0000000000000000 Z0 * Z90  ] = 0.000000
c73: [ 1.0000000000000000 Z0 * Z19 -1.0000000000000000 Z0 * Z91 -2.0000000000000000 Z0 * Z92 -4.0000000000000000 Z0 * Z93  ] = 0.000000
c74: [ 1.0000000000000000 Z0 * Z20 -1.0000000000000000 Z0 * Z94 -2.0000000000000000 Z0 * Z95 -4.0000000000000000 Z0 * Z96  ] = 0.000000
c75: [ 1.0000000000000000 Z0 * Z21 -1.0000000000000000 Z0 * Z97 -2.0000000000000000 Z0 * Z98 -4.0000000000000000 Z0 * Z99  ] = 0.000000
c76: [ 1.0000000000000000 Z0 * Z22 -1.0000000000000000 Z0 * Z100 -2.0000000000000000 Z0 * Z101 -4.0000000000000000 Z0 * Z102  ] = 0.000000
c77: [ 1.0000000000000000 Z0 * Z23 -1.0000000000000000 Z0 * Z103 -2.0000000000000000 Z0 * Z104 -4.0000000000000000 Z0 * Z105  ] = 0.000000
c78: [ 1.0000000000000000 Z0 * Z24 -1.0000000000000000 Z0 * Z106 -2.0000000000000000 Z0 * Z107 -4.0000000000000000 Z0 * Z108  ] = 0.000000
c79: [ 1.0000000000000000 Z0 * Z25 -1.0000000000000000 Z0 * Z109 -2.0000000000000000 Z0 * Z110 -4.0000000000000000 Z0 * Z111  ] = 0.000000
c80: [ 1.0000000000000000 Z0 * Z26 -1.0000000000000000 Z0 * Z112 -2.0000000000000000 Z0 * Z113 -4.0000000000000000 Z0 * Z114  ] = 0.000000
c81: [ 1.0000000000000000 Z0 * Z27 -1.0000000000000000 Z0 * Z115 -2.0000000000000000 Z0 * Z116 -4.0000000000000000 Z0 * Z117  ] = 0.000000
c82: [ 1.0000000000000000 Z0 * Z28 -1.0000000000000000 Z0 * Z118 -2.0000000000000000 Z0 * Z119 -4.0000000000000000 Z0 * Z120  ] = 0.000000
c83: [ 1.0000000000000000 Z0 * Z29 -1.0000000000000000 Z0 * Z121 -2.0000000000000000 Z0 * Z122 -4.0000000000000000 Z0 * Z123  ] = 0.000000
c84: [ 1.0000000000000000 Z0 * Z30 -1.0000000000000000 Z0 * Z124 -2.0000000000000000 Z0 * Z125 -4.0000000000000000 Z0 * Z126  ] = 0.000000
c85: [ 1.0000000000000000 Z0 * Z31 -1.0000000000000000 Z0 * Z127 -2.0000000000000000 Z0 * Z128 -4.0000000000000000 Z0 * Z129  ] = 0.000000
c86: [ 1.0000000000000000 Z0 * Z32 -1.0000000000000000 Z0 * Z130 -2.0000000000000000 Z0 * Z131 -4.0000000000000000 Z0 * Z132  ] = 0.000000
c87: [ 1.0000000000000000 Z0 * Z33 -1.0000000000000000 Z0 * Z133 -2.0000000000000000 Z0 * Z134 -4.0000000000000000 Z0 * Z135  ] = 0.000000
c88: [ 1.0000000000000000 Z0 * Z34 -1.0000000000000000 Z0 * Z136 -2.0000000000000000 Z0 * Z137 -4.0000000000000000 Z0 * Z138  ] = 0.000000
c89: [ 1.0000000000000000 Z0 * Z35 -1.0000000000000000 Z0 * Z139 -2.0000000000000000 Z0 * Z140 -4.0000000000000000 Z0 * Z141  ] = 0.000000
c90: [ 1.0000000000000000 Z0 * Z36 -1.0000000000000000 Z0 * Z142 -2.0000000000000000 Z0 * Z143 -4.0000000000000000 Z0 * Z144  ] = 0.000000
c91: [ 1.0000000000000000 Z0 * Z151 -1.0000000000000000 Z0 * Z157 -2.0000000000000000 Z0 * Z158 -4.0000000000000000 Z0 * Z159 -8.0000000000000000 Z0 * Z160  ] = 0.000000
c92: [ 1.0000000000000000 Z0 * Z152 -1.0000000000000000 Z0 * Z161 -2.0000000000000000 Z0 * Z162 -4.0000000000000000 Z0 * Z163 -8.0000000000000000 Z0 * Z164  ] = 0.000000
c93: [ 1.0000000000000000 Z0 * Z153 -1.0000000000000000 Z0 * Z165 -2.0000000000000000 Z0 * Z166 -4.0000000000000000 Z0 * Z167 -8.0000000000000000 Z0 * Z168  ] = 0.000000
c94: [ 1.0000000000000000 Z0 * Z154 -1.0000000000000000 Z0 * Z169 -2.0000000000000000 Z0 * Z170 -4.0000000000000000 Z0 * Z171 -8.0000000000000000 Z0 * Z172  ] = 0.000000
c95: [ 1.0000000000000000 Z0 * Z155 -1.0000000000000000 Z0 * Z173 -2.0000000000000000 Z0 * Z174 -4.0000000000000000 Z0 * Z175 -8.0000000000000000 Z0 * Z176  ] = 0.000000
c96: [ 1.0000000000000000 Z0 * Z156 -1.0000000000000000 Z0 * Z177 -2.0000000000000000 Z0 * Z178 -4.0000000000000000 Z0 * Z179 -8.0000000000000000 Z0 * Z180  ] = 0.000000
ac1: Z0 - 1 = 0
Bounds
1 <= Z0 <= 1
0.0000000000000000 <= Z1 <= 5.0000000000000000
0.0000000000000000 <= Z2 <= 5.0000000000000000
0.0000000000000000 <= Z3 <= 5.0000000000000000
0.0000000000000000 <= Z4 <= 5.0000000000000000
0.0000000000000000 <= Z5 <= 5.0000000000000000
0.0000000000000000 <= Z6 <= 5.0000000000000000
0.0000000000000000 <= Z7 <= 5.0000000000000000
0.0000000000000000 <= Z8 <= 5.0000000000000000
0.0000000000000000 <= Z9 <= 5.0000000000000000
0.0000000000000000 <= Z10 <= 5.0000000000000000
0.0000000000000000 <= Z11 <= 5.0000000000000000
0.0000000000000000 <= Z12 <= 5.0000000000000000
0.0000000000000000 <= Z13 <= 5.0000000000000000
0.0000000000000000 <= Z14 <= 5.0000000000000000
0.0000000000000000 <= Z15 <= 5.0000000000000000
0.0000000000000000 <= Z16 <= 5.0000000000000000
0.0000000000000000 <= Z17 <= 5.0000000000000000
0.0000000000000000 <= Z18 <= 5.0000000000000000
0.0000000000000000 <= Z19 <= 5.0000000000000000
0.0000000000000000 <= Z20 <= 5.0000000000000000
0.0000000000000000 <= Z21 <= 5.0000000000000000
0.0000000000000000 <= Z22 <= 5.0000000000000000
0.0000000000000000 <= Z23 <= 5.0000000000000000
0.0000000000000000 <= Z24 <= 5.0000000000000000
0.0000000000000000 <= Z25 <= 5.0000000000000000
0.0000000000000000 <= Z26 <= 5.0000000000000000
0.0000000000000000 <= Z27 <= 5.0000000000000000
0.0000000000000000 <= Z28 <= 5.0000000000000000
0.0000000000000000 <= Z29 <= 5.0000000000000000
0.0000000000000000 <= Z30 <= 5.0000000000000000
0.0000000000000000 <= Z31 <= 5.0000000000000000
0.0000000000000000 <= Z32 <= 5.0000000000000000
0.0000000000000000 <= Z33 <= 5.0000000000000000
0.0000000000000000 <= Z34 <= 5.0000000000000000
0.0000000000000000 <= Z35 <= 5.0000000000000000
0.0000000000000000 <= Z36 <= 5.0000000000000000
0.0000000000000000 <= Z37 <= 1.0000000000000000
0.0000000000000000 <= Z38 <= 1.0000000000000000
0.0000000000000000 <= Z39 <= 1.0000000000000000
0.0000000000000000 <= Z40 <= 1.0000000000000000
0.0000000000000000 <= Z41 <= 1.0000000000000000
0.0000000000000000 <= Z42 <= 1.0000000000000000
0.0000000000000000 <= Z43 <= 1.0000000000000000
0.0000000000000000 <= Z44 <= 1.0000000000000000
0.0000000000000000 <= Z45 <= 1.0000000000000000
0.0000000000000000 <= Z46 <= 1.0000000000000000
0.0000000000000000 <= Z47 <= 1.0000000000000000
0.0000000000000000 <= Z48 <= 1.0000000000000000
0.0000000000000000 <= Z49 <= 1.0000000000000000
0.0000000000000000 <= Z50 <= 1.0000000000000000
0.0000000000000000 <= Z51 <= 1.0000000000000000
0.0000000000000000 <= Z52 <= 1.0000000000000000
0.0000000000000000 <= Z53 <= 1.0000000000000000
0.0000000000000000 <= Z54 <= 1.0000000000000000
0.0000000000000000 <= Z55 <= 1.0000000000000000
0.0000000000000000 <= Z56 <= 1.0000000000000000
0.0000000000000000 <= Z57 <= 1.0000000000000000
0.0000000000000000 <= Z58 <= 1.0000000000000000
0.0000000000000000 <= Z59 <= 1.0000000000000000
0.0000000000000000 <= Z60 <= 1.0000000000000000
0.0000000000000000 <= Z61 <= 1.0000000000000000
0.0000000000000000 <= Z62 <= 1.0000000000000000
0.0000000000000000 <= Z63 <= 1.0000000000000000
0.0000000000000000 <= Z64 <= 1.0000000000000000
0.0000000000000000 <= Z65 <= 1.0000000000000000
0.0000000000000000 <= Z66 <= 1.0000000000000000
0.0000000000000000 <= Z67 <= 1.0000000000000000
0.0000000000000000 <= Z68 <= 1.0000000000000000
0.0000000000000000 <= Z69 <= 1.0000000000000000
0.0000000000000000 <= Z70 <= 1.0000000000000000
0.0000000000000000 <= Z71 <= 1.0000000000000000
0.0000000000000000 <= Z72 <= 1.0000000000000000
0.0000000000000000 <= Z73 <= 1.0000000000000000
0.0000000000000000 <= Z74 <= 1.0000000000000000
0.0000000000000000 <= Z75 <= 1.0000000000000000
0.0000000000000000 <= Z76 <= 1.0000000000000000
0.0000000000000000 <= Z77 <= 1.0000000000000000
0.0000000000000000 <= Z78 <= 1.0000000000000000
0.0000000000000000 <= Z79 <= 1.0000000000000000
0.0000000000000000 <= Z80 <= 1.0000000000000000
0.0000000000000000 <= Z81 <= 1.0000000000000000
0.0000000000000000 <= Z82 <= 1.0000000000000000
0.0000000000000000 <= Z83 <= 1.0000000000000000
0.0000000000000000 <= Z84 <= 1.0000000000000000
0.0000000000000000 <= Z85 <= 1.0000000000000000
0.0000000000000000 <= Z86 <= 1.0000000000000000
0.0000000000000000 <= Z87 <= 1.0000000000000000
0.0000000000000000 <= Z88 <= 1.0000000000000000
0.0000000000000000 <= Z89 <= 1.0000000000000000
0.0000000000000000 <= Z90 <= 1.0000000000000000
0.0000000000000000 <= Z91 <= 1.0000000000000000
0.0000000000000000 <= Z92 <= 1.0000000000000000
0.0000000000000000 <= Z93 <= 1.0000000000000000
0.0000000000000000 <= Z94 <= 1.0000000000000000
0.0000000000000000 <= Z95 <= 1.0000000000000000
0.0000000000000000 <= Z96 <= 1.0000000000000000
0.0000000000000000 <= Z97 <= 1.0000000000000000
0.0000000000000000 <= Z98 <= 1.0000000000000000
0.0000000000000000 <= Z99 <= 1.0000000000000000
0.0000000000000000 <= Z100 <= 1.0000000000000000
0.0000000000000000 <= Z101 <= 1.0000000000000000
0.0000000000000000 <= Z102 <= 1.0000000000000000
0.0000000000000000 <= Z103 <= 1.0000000000000000
0.0000000000000000 <= Z104 <= 1.0000000000000000
0.0000000000000000 <= Z105 <= 1.0000000000000000
0.0000000000000000 <= Z106 <= 1.0000000000000000
0.0000000000000000 <= Z107 <= 1.0000000000000000
0.0000000000000000 <= Z108 <= 1.0000000000000000
0.0000000000000000 <= Z109 <= 1.0000000000000000
0.0000000000000000 <= Z110 <= 1.0000000000000000
0.0000000000000000 <= Z111 <= 1.0000000000000000
0.0000000000000000 <= Z112 <= 1.0000000000000000
0.0000000000000000 <= Z113 <= 1.0000000000000000
0.0000000000000000 <= Z114 <= 1.0000000000000000
0.0000000000000000 <= Z115 <= 1.0000000000000000
0.0000000000000000 <= Z116 <= 1.0000000000000000
0.0000000000000000 <= Z117 <= 1.0000000000000000
0.0000000000000000 <= Z118 <= 1.0000000000000000
0.0000000000000000 <= Z119 <= 1.0000000000000000
0.0000000000000000 <= Z120 <= 1.0000000000000000
0.0000000000000000 <= Z121 <= 1.0000000000000000
0.0000000000000000 <= Z122 <= 1.0000000000000000
0.0000000000000000 <= Z123 <= 1.0000000000000000
0.0000000000000000 <= Z124 <= 1.0000000000000000
0.0000000000000000 <= Z125 <= 1.0000000000000000
0.0000000000000000 <= Z126 <= 1.0000000000000000
0.0000000000000000 <= Z127 <= 1.0000000000000000
0.0000000000000000 <= Z128 <= 1.0000000000000000
0.0000000000000000 <= Z129 <= 1.0000000000000000
0.0000000000000000 <= Z130 <= 1.0000000000000000
0.0000000000000000 <= Z131 <= 1.0000000000000000
0.0000000000000000 <= Z132 <= 1.0000000000000000
0.0000000000000000 <= Z133 <= 1.0000000000000000
0.0000000000000000 <= Z134 <= 1.0000000000000000
0.0000000000000000 <= Z135 <= 1.0000000000000000
0.0000000000000000 <= Z136 <= 1.0000000000000000
0.0000000000000000 <= Z137 <= 1.0000000000000000
0.0000000000000000 <= Z138 <= 1.0000000000000000
0.0000000000000000 <= Z139 <= 1.0000000000000000
0.0000000000000000 <= Z140 <= 1.0000000000000000
0.0000000000000000 <= Z141 <= 1.0000000000000000
0.0000000000000000 <= Z142 <= 1.0000000000000000
0.0000000000000000 <= Z143 <= 1.0000000000000000
0.0000000000000000 <= Z144 <= 1.0000000000000000
0.0000000000000000 <= Z145 <= 1.0000000000000000
0.0000000000000000 <= Z146 <= 1.0000000000000000
0.0000000000000000 <= Z147 <= 1.0000000000000000
0.0000000000000000 <= Z148 <= 1.0000000000000000
0.0000000000000000 <= Z149 <= 1.0000000000000000
0.0000000000000000 <= Z150 <= 1.0000000000000000
0.0000000000000000 <= Z151 <= 15.0000000000000000
0.0000000000000000 <= Z152 <= 12.0000000000000000
0.0000000000000000 <= Z153 <= 8.0000000000000000
0.0000000000000000 <= Z154 <= 7.0000000000000000
0.0000000000000000 <= Z155 <= 4.0000000000000000
0.0000000000000000 <= Z156 <= 2.0000000000000000
0.0000000000000000 <= Z157 <= 1.0000000000000000
0.0000000000000000 <= Z158 <= 1.0000000000000000
0.0000000000000000 <= Z159 <= 1.0000000000000000
0.0000000000000000 <= Z160 <= 1.0000000000000000
0.0000000000000000 <= Z161 <= 1.0000000000000000
0.0000000000000000 <= Z162 <= 1.0000000000000000
0.0000000000000000 <= Z163 <= 1.0000000000000000
0.0000000000000000 <= Z164 <= 1.0000000000000000
0.0000000000000000 <= Z165 <= 1.0000000000000000
0.0000000000000000 <= Z166 <= 1.0000000000000000
0.0000000000000000 <= Z167 <= 1.0000000000000000
0.0000000000000000 <= Z168 <= 1.0000000000000000
0.0000000000000000 <= Z169 <= 1.0000000000000000
0.0000000000000000 <= Z170 <= 1.0000000000000000
0.0000000000000000 <= Z171 <= 1.0000000000000000
0.0000000000000000 <= Z172 <= 1.0000000000000000
0.0000000000000000 <= Z173 <= 1.0000000000000000
0.0000000000000000 <= Z174 <= 1.0000000000000000
0.0000000000000000 <= Z175 <= 1.0000000000000000
0.0000000000000000 <= Z176 <= 1.0000000000000000
0.0000000000000000 <= Z177 <= 1.0000000000000000
0.0000000000000000 <= Z178 <= 1.0000000000000000
0.0000000000000000 <= Z179 <= 1.0000000000000000
0.0000000000000000 <= Z180 <= 1.0000000000000000
-100000000.0000000000000000 <= Z181 <= 100000000.0000000000000000
Binaries
Z37 Z38 Z39 Z40 Z41 Z42 Z43 Z44 Z45 Z46 Z47 Z48 Z49 Z50 Z51 Z52 Z53 Z54 Z55 Z56 Z57 Z58 Z59 Z60 Z61 Z62 Z63 Z64 Z65 Z66 Z67 Z68 Z69 Z70 Z71 Z72 Z73 Z74 Z75 Z76 Z77 Z78 Z79 Z80 Z81 Z82 Z83 Z84 Z85 Z86 Z87 Z88 Z89 Z90 Z91 Z92 Z93 Z94 Z95 Z96 Z97 Z98 Z99 Z100 Z101 Z102 Z103 Z104 Z105 Z106 Z107 Z108 Z109 Z110 Z111 Z112 Z113 Z114 Z115 Z116 Z117 Z118 Z119 Z120 Z121 Z122 Z123 Z124 Z125 Z126 Z127 Z128 Z129 Z130 Z131 Z132 Z133 Z134 Z135 Z136 Z137 Z138 Z139 Z140 Z141 Z142 Z143 Z144 Z145 Z146 Z147 Z148 Z149 Z150 Z157 Z158 Z159 Z160 Z161 Z162 Z163 Z164 Z165 Z166 Z167 Z168 Z169 Z170 Z171 Z172 Z173 Z174 Z175 Z176 Z177 Z178 Z179 Z180 
End